c Reduction to CNF
c
c
p cnf 28 118
1 5 9 13 17 21 25 0
2 6 10 14 18 22 26 0
3 7 11 15 19 23 27 0
4 8 12 16 20 24 28 0
-1 -2 0
-1 -3 0
-2 -3 0
-1 -4 0
-2 -4 0
-3 -4 0
-5 -6 0
-5 -7 0
-6 -7 0
-5 -8 0
-6 -8 0
-7 -8 0
-9 -10 0
-9 -11 0
-10 -11 0
-9 -12 0
-10 -12 0
-11 -12 0
-13 -14 0
-13 -15 0
-14 -15 0
-13 -16 0
-14 -16 0
-15 -16 0
-17 -18 0
-17 -19 0
-18 -19 0
-17 -20 0
-18 -20 0
-19 -20 0
-21 -22 0
-21 -23 0
-22 -23 0
-21 -24 0
-22 -24 0
-23 -24 0
-25 -26 0
-25 -27 0
-26 -27 0
-25 -28 0
-26 -28 0
-27 -28 0
-5 -14 0
-5 -18 0
-9 -18 0
-1 -22 0
-1 -26 0
-9 -26 0
-5 -15 0
-5 -19 0
-9 -19 0
-1 -23 0
-1 -27 0
-9 -27 0
-5 -16 0
-5 -20 0
-9 -20 0
-1 -24 0
-1 -28 0
-9 -28 0
-6 -13 0
-6 -17 0
-10 -17 0
-2 -21 0
-2 -25 0
-10 -25 0
-6 -15 0
-6 -19 0
-10 -19 0
-2 -23 0
-2 -27 0
-10 -27 0
-6 -16 0
-6 -20 0
-10 -20 0
-2 -24 0
-2 -28 0
-10 -28 0
-7 -13 0
-7 -17 0
-11 -17 0
-3 -21 0
-3 -25 0
-11 -25 0
-7 -14 0
-7 -18 0
-11 -18 0
-3 -22 0
-3 -26 0
-11 -26 0
-7 -16 0
-7 -20 0
-11 -20 0
-3 -24 0
-3 -28 0
-11 -28 0
-8 -13 0
-8 -17 0
-12 -17 0
-4 -21 0
-4 -25 0
-12 -25 0
-8 -14 0
-8 -18 0
-12 -18 0
-4 -22 0
-4 -26 0
-12 -26 0
-8 -15 0
-8 -19 0
-12 -19 0
-4 -23 0
-4 -27 0
-12 -27 0
